p tw 650 3924
1 3
1 5
1 2
1 6
1 4
2 3
2 5
2 6
2 4
3 5
3 6
3 7
3 9
3 4
3 10
3 8
4 5
4 6
4 7
4 9
4 10
4 8
5 9
5 11
5 6
5 12
5 10
6 9
6 11
6 12
6 10
7 9
7 10
7 13
7 15
7 8
7 16
7 14
8 9
8 10
8 13
8 15
8 16
8 14
9 11
9 12
9 15
9 17
9 10
9 18
9 16
10 11
10 12
10 15
10 17
10 18
10 16
11 17
11 19
11 12
11 20
11 18
12 17
12 19
12 20
12 18
13 15
13 16
13 21
13 23
13 14
13 24
13 22
14 15
14 16
14 21
14 23
14 24
14 22
15 17
15 18
15 23
15 25
15 16
15 26
15 24
16 17
16 18
16 23
16 25
16 26
16 24
17 19
17 20
17 25
17 27
17 18
17 28
17 26
18 19
18 20
18 25
18 27
18 28
18 26
19 27
19 29
19 20
19 30
19 28
20 27
20 29
20 30
20 28
21 23
21 24
21 31
21 33
21 22
21 34
21 32
22 23
22 24
22 31
22 33
22 34
22 32
23 25
23 26
23 33
23 35
23 24
23 36
23 34
24 25
24 26
24 33
24 35
24 36
24 34
25 27
25 28
25 35
25 37
25 26
25 38
25 36
26 27
26 28
26 35
26 37
26 38
26 36
27 29
27 30
27 37
27 39
27 28
27 40
27 38
28 29
28 30
28 37
28 39
28 40
28 38
29 39
29 41
29 30
29 42
29 40
30 39
30 41
30 42
30 40
31 33
31 34
31 43
31 45
31 32
31 46
31 44
32 33
32 34
32 43
32 45
32 46
32 44
33 35
33 36
33 45
33 47
33 34
33 48
33 46
34 35
34 36
34 45
34 47
34 48
34 46
35 37
35 38
35 47
35 49
35 36
35 50
35 48
36 37
36 38
36 47
36 49
36 50
36 48
37 39
37 40
37 49
37 51
37 38
37 52
37 50
38 39
38 40
38 49
38 51
38 52
38 50
39 41
39 42
39 51
39 53
39 40
39 54
39 52
40 41
40 42
40 51
40 53
40 54
40 52
41 53
41 55
41 42
41 56
41 54
42 53
42 55
42 56
42 54
43 45
43 46
43 57
43 59
43 44
43 60
43 58
44 45
44 46
44 57
44 59
44 60
44 58
45 47
45 48
45 59
45 61
45 46
45 62
45 60
46 47
46 48
46 59
46 61
46 62
46 60
47 49
47 50
47 61
47 63
47 48
47 64
47 62
48 49
48 50
48 61
48 63
48 64
48 62
49 51
49 52
49 63
49 65
49 50
49 66
49 64
50 51
50 52
50 63
50 65
50 66
50 64
51 53
51 54
51 65
51 67
51 52
51 68
51 66
52 53
52 54
52 65
52 67
52 68
52 66
53 55
53 56
53 67
53 69
53 54
53 70
53 68
54 55
54 56
54 67
54 69
54 70
54 68
55 69
55 71
55 56
55 72
55 70
56 69
56 71
56 72
56 70
57 59
57 60
57 73
57 75
57 58
57 76
57 74
58 59
58 60
58 73
58 75
58 76
58 74
59 61
59 62
59 75
59 77
59 60
59 78
59 76
60 61
60 62
60 75
60 77
60 78
60 76
61 63
61 64
61 77
61 79
61 62
61 80
61 78
62 63
62 64
62 77
62 79
62 80
62 78
63 65
63 66
63 79
63 81
63 64
63 82
63 80
64 65
64 66
64 79
64 81
64 82
64 80
65 67
65 68
65 81
65 83
65 66
65 84
65 82
66 67
66 68
66 81
66 83
66 84
66 82
67 69
67 70
67 83
67 85
67 68
67 86
67 84
68 69
68 70
68 83
68 85
68 86
68 84
69 71
69 72
69 85
69 87
69 70
69 88
69 86
70 71
70 72
70 85
70 87
70 88
70 86
71 87
71 89
71 72
71 90
71 88
72 87
72 89
72 90
72 88
73 75
73 76
73 91
73 93
73 74
73 94
73 92
74 75
74 76
74 91
74 93
74 94
74 92
75 77
75 78
75 93
75 95
75 76
75 96
75 94
76 77
76 78
76 93
76 95
76 96
76 94
77 79
77 80
77 95
77 97
77 78
77 98
77 96
78 79
78 80
78 95
78 97
78 98
78 96
79 81
79 82
79 97
79 99
79 80
79 100
79 98
80 81
80 82
80 97
80 99
80 100
80 98
81 83
81 84
81 99
81 101
81 82
81 102
81 100
82 83
82 84
82 99
82 101
82 102
82 100
83 85
83 86
83 101
83 103
83 84
83 104
83 102
84 85
84 86
84 101
84 103
84 104
84 102
85 87
85 88
85 103
85 105
85 86
85 106
85 104
86 87
86 88
86 103
86 105
86 106
86 104
87 89
87 90
87 105
87 107
87 88
87 108
87 106
88 89
88 90
88 105
88 107
88 108
88 106
89 107
89 109
89 90
89 110
89 108
90 107
90 109
90 110
90 108
91 93
91 94
91 111
91 113
91 92
91 114
91 112
92 93
92 94
92 111
92 113
92 114
92 112
93 95
93 96
93 113
93 115
93 94
93 116
93 114
94 95
94 96
94 113
94 115
94 116
94 114
95 97
95 98
95 115
95 117
95 96
95 118
95 116
96 97
96 98
96 115
96 117
96 118
96 116
97 99
97 100
97 117
97 119
97 98
97 120
97 118
98 99
98 100
98 117
98 119
98 120
98 118
99 101
99 102
99 119
99 121
99 100
99 122
99 120
100 101
100 102
100 119
100 121
100 122
100 120
101 103
101 104
101 121
101 123
101 102
101 124
101 122
102 103
102 104
102 121
102 123
102 124
102 122
103 105
103 106
103 123
103 125
103 104
103 126
103 124
104 105
104 106
104 123
104 125
104 126
104 124
105 107
105 108
105 125
105 127
105 106
105 128
105 126
106 107
106 108
106 125
106 127
106 128
106 126
107 109
107 110
107 127
107 129
107 108
107 130
107 128
108 109
108 110
108 127
108 129
108 130
108 128
109 129
109 131
109 110
109 132
109 130
110 129
110 131
110 132
110 130
111 113
111 114
111 133
111 135
111 112
111 136
111 134
112 113
112 114
112 133
112 135
112 136
112 134
113 115
113 116
113 135
113 137
113 114
113 138
113 136
114 115
114 116
114 135
114 137
114 138
114 136
115 117
115 118
115 137
115 139
115 116
115 140
115 138
116 117
116 118
116 137
116 139
116 140
116 138
117 119
117 120
117 139
117 141
117 118
117 142
117 140
118 119
118 120
118 139
118 141
118 142
118 140
119 121
119 122
119 141
119 143
119 120
119 144
119 142
120 121
120 122
120 141
120 143
120 144
120 142
121 123
121 124
121 143
121 145
121 122
121 146
121 144
122 123
122 124
122 143
122 145
122 146
122 144
123 125
123 126
123 145
123 147
123 124
123 148
123 146
124 125
124 126
124 145
124 147
124 148
124 146
125 127
125 128
125 147
125 149
125 126
125 150
125 148
126 127
126 128
126 147
126 149
126 150
126 148
127 129
127 130
127 149
127 151
127 128
127 152
127 150
128 129
128 130
128 149
128 151
128 152
128 150
129 131
129 132
129 151
129 153
129 130
129 154
129 152
130 131
130 132
130 151
130 153
130 154
130 152
131 153
131 155
131 132
131 156
131 154
132 153
132 155
132 156
132 154
133 135
133 136
133 157
133 159
133 134
133 160
133 158
134 135
134 136
134 157
134 159
134 160
134 158
135 137
135 138
135 159
135 161
135 136
135 162
135 160
136 137
136 138
136 159
136 161
136 162
136 160
137 139
137 140
137 161
137 163
137 138
137 164
137 162
138 139
138 140
138 161
138 163
138 164
138 162
139 141
139 142
139 163
139 165
139 140
139 166
139 164
140 141
140 142
140 163
140 165
140 166
140 164
141 143
141 144
141 165
141 167
141 142
141 168
141 166
142 143
142 144
142 165
142 167
142 168
142 166
143 145
143 146
143 167
143 169
143 144
143 170
143 168
144 145
144 146
144 167
144 169
144 170
144 168
145 147
145 148
145 169
145 171
145 146
145 172
145 170
146 147
146 148
146 169
146 171
146 172
146 170
147 149
147 150
147 171
147 173
147 148
147 174
147 172
148 149
148 150
148 171
148 173
148 174
148 172
149 151
149 152
149 173
149 175
149 150
149 176
149 174
150 151
150 152
150 173
150 175
150 176
150 174
151 153
151 154
151 175
151 177
151 152
151 178
151 176
152 153
152 154
152 175
152 177
152 178
152 176
153 155
153 156
153 177
153 179
153 154
153 180
153 178
154 155
154 156
154 177
154 179
154 180
154 178
155 179
155 181
155 156
155 182
155 180
156 179
156 181
156 182
156 180
157 159
157 160
157 183
157 185
157 158
157 186
157 184
158 159
158 160
158 183
158 185
158 186
158 184
159 161
159 162
159 185
159 187
159 160
159 188
159 186
160 161
160 162
160 185
160 187
160 188
160 186
161 163
161 164
161 187
161 189
161 162
161 190
161 188
162 163
162 164
162 187
162 189
162 190
162 188
163 165
163 166
163 189
163 191
163 164
163 192
163 190
164 165
164 166
164 189
164 191
164 192
164 190
165 167
165 168
165 191
165 193
165 166
165 194
165 192
166 167
166 168
166 191
166 193
166 194
166 192
167 169
167 170
167 193
167 195
167 168
167 196
167 194
168 169
168 170
168 193
168 195
168 196
168 194
169 171
169 172
169 195
169 197
169 170
169 198
169 196
170 171
170 172
170 195
170 197
170 198
170 196
171 173
171 174
171 197
171 199
171 172
171 200
171 198
172 173
172 174
172 197
172 199
172 200
172 198
173 175
173 176
173 199
173 201
173 174
173 202
173 200
174 175
174 176
174 199
174 201
174 202
174 200
175 177
175 178
175 201
175 203
175 176
175 204
175 202
176 177
176 178
176 201
176 203
176 204
176 202
177 179
177 180
177 203
177 205
177 178
177 206
177 204
178 179
178 180
178 203
178 205
178 206
178 204
179 181
179 182
179 205
179 207
179 180
179 208
179 206
180 181
180 182
180 205
180 207
180 208
180 206
181 207
181 209
181 182
181 210
181 208
182 207
182 209
182 210
182 208
183 185
183 186
183 211
183 213
183 184
183 214
183 212
184 185
184 186
184 211
184 213
184 214
184 212
185 187
185 188
185 213
185 215
185 186
185 216
185 214
186 187
186 188
186 213
186 215
186 216
186 214
187 189
187 190
187 215
187 217
187 188
187 218
187 216
188 189
188 190
188 215
188 217
188 218
188 216
189 191
189 192
189 217
189 219
189 190
189 220
189 218
190 191
190 192
190 217
190 219
190 220
190 218
191 193
191 194
191 219
191 221
191 192
191 222
191 220
192 193
192 194
192 219
192 221
192 222
192 220
193 195
193 196
193 221
193 223
193 194
193 224
193 222
194 195
194 196
194 221
194 223
194 224
194 222
195 197
195 198
195 223
195 225
195 196
195 226
195 224
196 197
196 198
196 223
196 225
196 226
196 224
197 199
197 200
197 225
197 227
197 198
197 228
197 226
198 199
198 200
198 225
198 227
198 228
198 226
199 201
199 202
199 227
199 229
199 200
199 230
199 228
200 201
200 202
200 227
200 229
200 230
200 228
201 203
201 204
201 229
201 231
201 202
201 232
201 230
202 203
202 204
202 229
202 231
202 232
202 230
203 205
203 206
203 231
203 233
203 204
203 234
203 232
204 205
204 206
204 231
204 233
204 234
204 232
205 207
205 208
205 233
205 235
205 206
205 236
205 234
206 207
206 208
206 233
206 235
206 236
206 234
207 209
207 210
207 235
207 237
207 208
207 238
207 236
208 209
208 210
208 235
208 237
208 238
208 236
209 237
209 239
209 210
209 240
209 238
210 237
210 239
210 240
210 238
211 213
211 214
211 241
211 243
211 212
211 244
211 242
212 213
212 214
212 241
212 243
212 244
212 242
213 215
213 216
213 243
213 245
213 214
213 246
213 244
214 215
214 216
214 243
214 245
214 246
214 244
215 217
215 218
215 245
215 247
215 216
215 248
215 246
216 217
216 218
216 245
216 247
216 248
216 246
217 219
217 220
217 247
217 249
217 218
217 250
217 248
218 219
218 220
218 247
218 249
218 250
218 248
219 221
219 222
219 249
219 251
219 220
219 252
219 250
220 221
220 222
220 249
220 251
220 252
220 250
221 223
221 224
221 251
221 253
221 222
221 254
221 252
222 223
222 224
222 251
222 253
222 254
222 252
223 225
223 226
223 253
223 255
223 224
223 256
223 254
224 225
224 226
224 253
224 255
224 256
224 254
225 227
225 228
225 255
225 257
225 226
225 258
225 256
226 227
226 228
226 255
226 257
226 258
226 256
227 229
227 230
227 257
227 259
227 228
227 260
227 258
228 229
228 230
228 257
228 259
228 260
228 258
229 231
229 232
229 259
229 261
229 230
229 262
229 260
230 231
230 232
230 259
230 261
230 262
230 260
231 233
231 234
231 261
231 263
231 232
231 264
231 262
232 233
232 234
232 261
232 263
232 264
232 262
233 235
233 236
233 263
233 265
233 234
233 266
233 264
234 235
234 236
234 263
234 265
234 266
234 264
235 237
235 238
235 265
235 267
235 236
235 268
235 266
236 237
236 238
236 265
236 267
236 268
236 266
237 239
237 240
237 267
237 269
237 238
237 270
237 268
238 239
238 240
238 267
238 269
238 270
238 268
239 269
239 271
239 240
239 272
239 270
240 269
240 271
240 272
240 270
241 243
241 244
241 273
241 275
241 242
241 276
241 274
242 243
242 244
242 273
242 275
242 276
242 274
243 245
243 246
243 275
243 277
243 244
243 278
243 276
244 245
244 246
244 275
244 277
244 278
244 276
245 247
245 248
245 277
245 279
245 246
245 280
245 278
246 247
246 248
246 277
246 279
246 280
246 278
247 249
247 250
247 279
247 281
247 248
247 282
247 280
248 249
248 250
248 279
248 281
248 282
248 280
249 251
249 252
249 281
249 283
249 250
249 284
249 282
250 251
250 252
250 281
250 283
250 284
250 282
251 253
251 254
251 283
251 285
251 252
251 286
251 284
252 253
252 254
252 283
252 285
252 286
252 284
253 255
253 256
253 285
253 287
253 254
253 288
253 286
254 255
254 256
254 285
254 287
254 288
254 286
255 257
255 258
255 287
255 289
255 256
255 290
255 288
256 257
256 258
256 287
256 289
256 290
256 288
257 259
257 260
257 289
257 291
257 258
257 292
257 290
258 259
258 260
258 289
258 291
258 292
258 290
259 261
259 262
259 291
259 293
259 260
259 294
259 292
260 261
260 262
260 291
260 293
260 294
260 292
261 263
261 264
261 293
261 295
261 262
261 296
261 294
262 263
262 264
262 293
262 295
262 296
262 294
263 265
263 266
263 295
263 297
263 264
263 298
263 296
264 265
264 266
264 295
264 297
264 298
264 296
265 267
265 268
265 297
265 299
265 266
265 300
265 298
266 267
266 268
266 297
266 299
266 300
266 298
267 269
267 270
267 299
267 301
267 268
267 302
267 300
268 269
268 270
268 299
268 301
268 302
268 300
269 271
269 272
269 301
269 303
269 270
269 304
269 302
270 271
270 272
270 301
270 303
270 304
270 302
271 303
271 305
271 272
271 306
271 304
272 303
272 305
272 306
272 304
273 275
273 276
273 307
273 309
273 274
273 310
273 308
274 275
274 276
274 307
274 309
274 310
274 308
275 277
275 278
275 309
275 311
275 276
275 312
275 310
276 277
276 278
276 309
276 311
276 312
276 310
277 279
277 280
277 311
277 313
277 278
277 314
277 312
278 279
278 280
278 311
278 313
278 314
278 312
279 281
279 282
279 313
279 315
279 280
279 316
279 314
280 281
280 282
280 313
280 315
280 316
280 314
281 283
281 284
281 315
281 317
281 282
281 318
281 316
282 283
282 284
282 315
282 317
282 318
282 316
283 285
283 286
283 317
283 319
283 284
283 320
283 318
284 285
284 286
284 317
284 319
284 320
284 318
285 287
285 288
285 319
285 321
285 286
285 322
285 320
286 287
286 288
286 319
286 321
286 322
286 320
287 289
287 290
287 321
287 323
287 288
287 324
287 322
288 289
288 290
288 321
288 323
288 324
288 322
289 291
289 292
289 323
289 325
289 290
289 326
289 324
290 291
290 292
290 323
290 325
290 326
290 324
291 293
291 294
291 325
291 327
291 292
291 328
291 326
292 293
292 294
292 325
292 327
292 328
292 326
293 295
293 296
293 327
293 329
293 294
293 330
293 328
294 295
294 296
294 327
294 329
294 330
294 328
295 297
295 298
295 329
295 331
295 296
295 332
295 330
296 297
296 298
296 329
296 331
296 332
296 330
297 299
297 300
297 331
297 333
297 298
297 334
297 332
298 299
298 300
298 331
298 333
298 334
298 332
299 301
299 302
299 333
299 335
299 300
299 336
299 334
300 301
300 302
300 333
300 335
300 336
300 334
301 303
301 304
301 335
301 337
301 302
301 338
301 336
302 303
302 304
302 335
302 337
302 338
302 336
303 305
303 306
303 337
303 339
303 304
303 340
303 338
304 305
304 306
304 337
304 339
304 340
304 338
305 339
305 341
305 306
305 342
305 340
306 339
306 341
306 342
306 340
307 309
307 310
307 343
307 345
307 308
307 346
307 344
308 309
308 310
308 343
308 345
308 346
308 344
309 311
309 312
309 345
309 347
309 310
309 348
309 346
310 311
310 312
310 345
310 347
310 348
310 346
311 313
311 314
311 347
311 349
311 312
311 350
311 348
312 313
312 314
312 347
312 349
312 350
312 348
313 315
313 316
313 349
313 351
313 314
313 352
313 350
314 315
314 316
314 349
314 351
314 352
314 350
315 317
315 318
315 351
315 353
315 316
315 354
315 352
316 317
316 318
316 351
316 353
316 354
316 352
317 319
317 320
317 353
317 355
317 318
317 356
317 354
318 319
318 320
318 353
318 355
318 356
318 354
319 321
319 322
319 355
319 357
319 320
319 358
319 356
320 321
320 322
320 355
320 357
320 358
320 356
321 323
321 324
321 357
321 359
321 322
321 360
321 358
322 323
322 324
322 357
322 359
322 360
322 358
323 325
323 326
323 359
323 361
323 324
323 362
323 360
324 325
324 326
324 359
324 361
324 362
324 360
325 327
325 328
325 361
325 363
325 326
325 364
325 362
326 327
326 328
326 361
326 363
326 364
326 362
327 329
327 330
327 363
327 365
327 328
327 366
327 364
328 329
328 330
328 363
328 365
328 366
328 364
329 331
329 332
329 365
329 367
329 330
329 368
329 366
330 331
330 332
330 365
330 367
330 368
330 366
331 333
331 334
331 367
331 369
331 332
331 370
331 368
332 333
332 334
332 367
332 369
332 370
332 368
333 335
333 336
333 369
333 371
333 334
333 372
333 370
334 335
334 336
334 369
334 371
334 372
334 370
335 337
335 338
335 371
335 373
335 336
335 374
335 372
336 337
336 338
336 371
336 373
336 374
336 372
337 339
337 340
337 373
337 375
337 338
337 376
337 374
338 339
338 340
338 373
338 375
338 376
338 374
339 341
339 342
339 375
339 377
339 340
339 378
339 376
340 341
340 342
340 375
340 377
340 378
340 376
341 377
341 379
341 342
341 380
341 378
342 377
342 379
342 380
342 378
343 345
343 346
343 381
343 383
343 344
343 384
343 382
344 345
344 346
344 381
344 383
344 384
344 382
345 347
345 348
345 383
345 385
345 346
345 386
345 384
346 347
346 348
346 383
346 385
346 386
346 384
347 349
347 350
347 385
347 387
347 348
347 388
347 386
348 349
348 350
348 385
348 387
348 388
348 386
349 351
349 352
349 387
349 389
349 350
349 390
349 388
350 351
350 352
350 387
350 389
350 390
350 388
351 353
351 354
351 389
351 391
351 352
351 392
351 390
352 353
352 354
352 389
352 391
352 392
352 390
353 355
353 356
353 391
353 393
353 354
353 394
353 392
354 355
354 356
354 391
354 393
354 394
354 392
355 357
355 358
355 393
355 395
355 356
355 396
355 394
356 357
356 358
356 393
356 395
356 396
356 394
357 359
357 360
357 395
357 397
357 358
357 398
357 396
358 359
358 360
358 395
358 397
358 398
358 396
359 361
359 362
359 397
359 399
359 360
359 400
359 398
360 361
360 362
360 397
360 399
360 400
360 398
361 363
361 364
361 399
361 401
361 362
361 402
361 400
362 363
362 364
362 399
362 401
362 402
362 400
363 365
363 366
363 401
363 403
363 364
363 404
363 402
364 365
364 366
364 401
364 403
364 404
364 402
365 367
365 368
365 403
365 405
365 366
365 406
365 404
366 367
366 368
366 403
366 405
366 406
366 404
367 369
367 370
367 405
367 407
367 368
367 408
367 406
368 369
368 370
368 405
368 407
368 408
368 406
369 371
369 372
369 407
369 409
369 370
369 410
369 408
370 371
370 372
370 407
370 409
370 410
370 408
371 373
371 374
371 409
371 411
371 372
371 412
371 410
372 373
372 374
372 409
372 411
372 412
372 410
373 375
373 376
373 411
373 413
373 374
373 414
373 412
374 375
374 376
374 411
374 413
374 414
374 412
375 377
375 378
375 413
375 415
375 376
375 416
375 414
376 377
376 378
376 413
376 415
376 416
376 414
377 379
377 380
377 415
377 417
377 378
377 418
377 416
378 379
378 380
378 415
378 417
378 418
378 416
379 417
379 419
379 380
379 420
379 418
380 417
380 419
380 420
380 418
381 383
381 384
381 421
381 423
381 382
381 424
381 422
382 383
382 384
382 421
382 423
382 424
382 422
383 385
383 386
383 423
383 425
383 384
383 426
383 424
384 385
384 386
384 423
384 425
384 426
384 424
385 387
385 388
385 425
385 427
385 386
385 428
385 426
386 387
386 388
386 425
386 427
386 428
386 426
387 389
387 390
387 427
387 429
387 388
387 430
387 428
388 389
388 390
388 427
388 429
388 430
388 428
389 391
389 392
389 429
389 431
389 390
389 432
389 430
390 391
390 392
390 429
390 431
390 432
390 430
391 393
391 394
391 431
391 433
391 392
391 434
391 432
392 393
392 394
392 431
392 433
392 434
392 432
393 395
393 396
393 433
393 435
393 394
393 436
393 434
394 395
394 396
394 433
394 435
394 436
394 434
395 397
395 398
395 435
395 437
395 396
395 438
395 436
396 397
396 398
396 435
396 437
396 438
396 436
397 399
397 400
397 437
397 439
397 398
397 440
397 438
398 399
398 400
398 437
398 439
398 440
398 438
399 401
399 402
399 439
399 441
399 400
399 442
399 440
400 401
400 402
400 439
400 441
400 442
400 440
401 403
401 404
401 441
401 443
401 402
401 444
401 442
402 403
402 404
402 441
402 443
402 444
402 442
403 405
403 406
403 443
403 445
403 404
403 446
403 444
404 405
404 406
404 443
404 445
404 446
404 444
405 407
405 408
405 445
405 447
405 406
405 448
405 446
406 407
406 408
406 445
406 447
406 448
406 446
407 409
407 410
407 447
407 449
407 408
407 450
407 448
408 409
408 410
408 447
408 449
408 450
408 448
409 411
409 412
409 449
409 451
409 410
409 452
409 450
410 411
410 412
410 449
410 451
410 452
410 450
411 413
411 414
411 451
411 453
411 412
411 454
411 452
412 413
412 414
412 451
412 453
412 454
412 452
413 415
413 416
413 453
413 455
413 414
413 456
413 454
414 415
414 416
414 453
414 455
414 456
414 454
415 417
415 418
415 455
415 457
415 416
415 458
415 456
416 417
416 418
416 455
416 457
416 458
416 456
417 419
417 420
417 457
417 459
417 418
417 460
417 458
418 419
418 420
418 457
418 459
418 460
418 458
419 459
419 461
419 420
419 462
419 460
420 459
420 461
420 462
420 460
421 423
421 424
421 463
421 465
421 422
421 466
421 464
422 423
422 424
422 463
422 465
422 466
422 464
423 425
423 426
423 465
423 467
423 424
423 468
423 466
424 425
424 426
424 465
424 467
424 468
424 466
425 427
425 428
425 467
425 469
425 426
425 470
425 468
426 427
426 428
426 467
426 469
426 470
426 468
427 429
427 430
427 469
427 471
427 428
427 472
427 470
428 429
428 430
428 469
428 471
428 472
428 470
429 431
429 432
429 471
429 473
429 430
429 474
429 472
430 431
430 432
430 471
430 473
430 474
430 472
431 433
431 434
431 473
431 475
431 432
431 476
431 474
432 433
432 434
432 473
432 475
432 476
432 474
433 435
433 436
433 475
433 477
433 434
433 478
433 476
434 435
434 436
434 475
434 477
434 478
434 476
435 437
435 438
435 477
435 479
435 436
435 480
435 478
436 437
436 438
436 477
436 479
436 480
436 478
437 439
437 440
437 479
437 481
437 438
437 482
437 480
438 439
438 440
438 479
438 481
438 482
438 480
439 441
439 442
439 481
439 483
439 440
439 484
439 482
440 441
440 442
440 481
440 483
440 484
440 482
441 443
441 444
441 483
441 485
441 442
441 486
441 484
442 443
442 444
442 483
442 485
442 486
442 484
443 445
443 446
443 485
443 487
443 444
443 488
443 486
444 445
444 446
444 485
444 487
444 488
444 486
445 447
445 448
445 487
445 489
445 446
445 490
445 488
446 447
446 448
446 487
446 489
446 490
446 488
447 449
447 450
447 489
447 491
447 448
447 492
447 490
448 449
448 450
448 489
448 491
448 492
448 490
449 451
449 452
449 491
449 494
449 450
449 492
449 493
450 451
450 452
450 491
450 494
450 492
450 493
451 453
451 454
451 493
451 495
451 452
451 496
451 494
452 453
452 454
452 493
452 495
452 496
452 494
453 455
453 456
453 495
453 497
453 454
453 498
453 496
454 455
454 456
454 495
454 497
454 498
454 496
455 457
455 458
455 497
455 499
455 456
455 500
455 498
456 457
456 458
456 497
456 499
456 500
456 498
457 459
457 460
457 499
457 501
457 458
457 502
457 500
458 459
458 460
458 499
458 501
458 502
458 500
459 461
459 462
459 501
459 503
459 460
459 504
459 502
460 461
460 462
460 501
460 503
460 504
460 502
461 503
461 505
461 462
461 506
461 504
462 503
462 505
462 506
462 504
463 465
463 466
463 507
463 509
463 464
463 510
463 508
464 465
464 466
464 507
464 509
464 510
464 508
465 467
465 468
465 509
465 511
465 466
465 512
465 510
466 467
466 468
466 509
466 511
466 512
466 510
467 469
467 470
467 511
467 513
467 468
467 514
467 512
468 469
468 470
468 511
468 513
468 514
468 512
469 471
469 472
469 513
469 515
469 470
469 516
469 514
470 471
470 472
470 513
470 515
470 516
470 514
471 473
471 474
471 515
471 517
471 472
471 518
471 516
472 473
472 474
472 515
472 517
472 518
472 516
473 475
473 476
473 517
473 519
473 474
473 520
473 518
474 475
474 476
474 517
474 519
474 520
474 518
475 477
475 478
475 519
475 521
475 476
475 522
475 520
476 477
476 478
476 519
476 521
476 522
476 520
477 479
477 480
477 521
477 523
477 478
477 524
477 522
478 479
478 480
478 521
478 523
478 524
478 522
479 481
479 482
479 523
479 525
479 480
479 526
479 524
480 481
480 482
480 523
480 525
480 526
480 524
481 483
481 484
481 525
481 527
481 482
481 528
481 526
482 483
482 484
482 525
482 527
482 528
482 526
483 485
483 486
483 527
483 529
483 484
483 530
483 528
484 485
484 486
484 527
484 529
484 530
484 528
485 487
485 488
485 529
485 531
485 486
485 532
485 530
486 487
486 488
486 529
486 531
486 532
486 530
487 489
487 490
487 531
487 533
487 488
487 534
487 532
488 489
488 490
488 531
488 533
488 534
488 532
489 491
489 492
489 533
489 535
489 490
489 536
489 534
490 491
490 492
490 533
490 535
490 536
490 534
491 494
491 535
491 537
491 492
491 538
491 536
492 493
492 494
492 535
492 537
492 538
492 536
493 495
493 496
493 537
493 539
493 494
493 540
493 538
494 495
494 496
494 537
494 539
494 540
494 538
495 497
495 498
495 539
495 541
495 496
495 542
495 540
496 497
496 498
496 539
496 541
496 542
496 540
497 499
497 500
497 541
497 543
497 498
497 544
497 542
498 499
498 500
498 541
498 543
498 544
498 542
499 501
499 502
499 543
499 545
499 500
499 546
499 544
500 501
500 502
500 543
500 545
500 546
500 544
501 503
501 504
501 545
501 547
501 502
501 548
501 546
502 503
502 504
502 545
502 547
502 548
502 546
503 505
503 506
503 547
503 549
503 504
503 550
503 548
504 505
504 506
504 547
504 549
504 550
504 548
505 549
505 551
505 506
505 552
505 550
506 549
506 551
506 552
506 550
507 509
507 510
507 553
507 555
507 508
507 556
507 554
508 509
508 510
508 553
508 555
508 556
508 554
509 511
509 512
509 555
509 557
509 510
509 558
509 556
510 511
510 512
510 555
510 557
510 558
510 556
511 513
511 514
511 557
511 559
511 512
511 560
511 558
512 513
512 514
512 557
512 559
512 560
512 558
513 515
513 516
513 559
513 561
513 514
513 562
513 560
514 515
514 516
514 559
514 561
514 562
514 560
515 517
515 518
515 561
515 563
515 516
515 564
515 562
516 517
516 518
516 561
516 563
516 564
516 562
517 519
517 520
517 563
517 565
517 518
517 566
517 564
518 519
518 520
518 563
518 565
518 566
518 564
519 521
519 522
519 565
519 567
519 520
519 568
519 566
520 521
520 522
520 565
520 567
520 568
520 566
521 523
521 524
521 567
521 569
521 522
521 570
521 568
522 523
522 524
522 567
522 569
522 570
522 568
523 525
523 526
523 569
523 571
523 524
523 572
523 570
524 525
524 526
524 569
524 571
524 572
524 570
525 527
525 528
525 571
525 573
525 526
525 574
525 572
526 527
526 528
526 571
526 573
526 574
526 572
527 529
527 530
527 573
527 575
527 528
527 576
527 574
528 529
528 530
528 573
528 575
528 576
528 574
529 531
529 532
529 575
529 577
529 530
529 578
529 576
530 531
530 532
530 575
530 577
530 578
530 576
531 533
531 534
531 577
531 579
531 532
531 580
531 578
532 533
532 534
532 577
532 579
532 580
532 578
533 535
533 536
533 579
533 581
533 534
533 582
533 580
534 535
534 536
534 579
534 581
534 582
534 580
535 537
535 538
535 581
535 583
535 536
535 584
535 582
536 537
536 538
536 581
536 583
536 584
536 582
537 539
537 540
537 583
537 585
537 538
537 586
537 584
538 539
538 540
538 583
538 585
538 586
538 584
539 541
539 542
539 585
539 587
539 540
539 588
539 586
540 541
540 542
540 585
540 587
540 588
540 586
541 543
541 544
541 587
541 589
541 542
541 590
541 588
542 543
542 544
542 587
542 589
542 590
542 588
543 545
543 546
543 589
543 591
543 544
543 592
543 590
544 545
544 546
544 589
544 591
544 592
544 590
545 547
545 548
545 591
545 593
545 546
545 594
545 592
546 547
546 548
546 591
546 593
546 594
546 592
547 549
547 550
547 593
547 595
547 548
547 596
547 594
548 549
548 550
548 593
548 595
548 596
548 594
549 551
549 552
549 595
549 597
549 550
549 598
549 596
550 551
550 552
550 595
550 597
550 598
550 596
551 597
551 599
551 552
551 600
551 598
552 597
552 599
552 600
552 598
553 555
553 556
553 601
553 603
553 554
553 604
553 602
554 555
554 556
554 601
554 603
554 604
554 602
555 557
555 558
555 603
555 605
555 556
555 606
555 604
556 557
556 558
556 603
556 605
556 606
556 604
557 559
557 560
557 605
557 607
557 558
557 608
557 606
558 559
558 560
558 605
558 607
558 608
558 606
559 561
559 562
559 607
559 609
559 560
559 610
559 608
560 561
560 562
560 607
560 609
560 610
560 608
561 563
561 564
561 609
561 611
561 562
561 612
561 610
562 563
562 564
562 609
562 611
562 612
562 610
563 565
563 566
563 611
563 613
563 564
563 614
563 612
564 565
564 566
564 611
564 613
564 614
564 612
565 567
565 568
565 613
565 615
565 566
565 616
565 614
566 567
566 568
566 613
566 615
566 616
566 614
567 569
567 570
567 615
567 617
567 568
567 618
567 616
568 569
568 570
568 615
568 617
568 618
568 616
569 571
569 572
569 617
569 619
569 570
569 620
569 618
570 571
570 572
570 617
570 619
570 620
570 618
571 573
571 574
571 619
571 621
571 572
571 622
571 620
572 573
572 574
572 619
572 621
572 622
572 620
573 575
573 576
573 621
573 623
573 574
573 624
573 622
574 575
574 576
574 621
574 623
574 624
574 622
575 577
575 578
575 623
575 625
575 576
575 626
575 624
576 577
576 578
576 623
576 625
576 626
576 624
577 579
577 580
577 625
577 627
577 578
577 628
577 626
578 579
578 580
578 625
578 627
578 628
578 626
579 581
579 582
579 627
579 629
579 580
579 630
579 628
580 581
580 582
580 627
580 629
580 630
580 628
581 583
581 584
581 629
581 631
581 582
581 632
581 630
582 583
582 584
582 629
582 631
582 632
582 630
583 585
583 586
583 631
583 633
583 584
583 634
583 632
584 585
584 586
584 631
584 633
584 634
584 632
585 587
585 588
585 633
585 635
585 586
585 636
585 634
586 587
586 588
586 633
586 635
586 636
586 634
587 589
587 590
587 635
587 637
587 588
587 638
587 636
588 589
588 590
588 635
588 637
588 638
588 636
589 591
589 592
589 637
589 639
589 590
589 640
589 638
590 591
590 592
590 637
590 639
590 640
590 638
591 593
591 594
591 639
591 641
591 592
591 642
591 640
592 593
592 594
592 639
592 641
592 642
592 640
593 595
593 596
593 641
593 643
593 594
593 644
593 642
594 595
594 596
594 641
594 643
594 644
594 642
595 597
595 598
595 643
595 645
595 596
595 646
595 644
596 597
596 598
596 643
596 645
596 646
596 644
597 599
597 600
597 645
597 647
597 598
597 648
597 646
598 599
598 600
598 645
598 647
598 648
598 646
599 647
599 649
599 600
599 650
599 648
600 647
600 649
600 650
600 648
601 603
601 604
601 602
602 603
602 604
603 605
603 606
603 604
604 605
604 606
605 607
605 608
605 606
606 607
606 608
607 609
607 610
607 608
608 609
608 610
609 611
609 612
609 610
610 611
610 612
611 613
611 614
611 612
612 613
612 614
613 615
613 616
613 614
614 615
614 616
615 617
615 618
615 616
616 617
616 618
617 619
617 620
617 618
618 619
618 620
619 621
619 622
619 620
620 621
620 622
621 623
621 624
621 622
622 623
622 624
623 625
623 626
623 624
624 625
624 626
625 627
625 628
625 626
626 627
626 628
627 629
627 630
627 628
628 629
628 630
629 631
629 632
629 630
630 631
630 632
631 633
631 634
631 632
632 633
632 634
633 635
633 636
633 634
634 635
634 636
635 637
635 638
635 636
636 637
636 638
637 639
637 640
637 638
638 639
638 640
639 641
639 642
639 640
640 641
640 642
641 643
641 644
641 642
642 643
642 644
643 645
643 646
643 644
644 645
644 646
645 647
645 648
645 646
646 647
646 648
647 649
647 650
647 648
648 649
648 650
649 650
